; benchmark generated from python API
(set-info :status unknown)
(declare-datatypes ((IntState 0)) (((Mk1 (val1 Int)) (Mk2 (val2 Int)))))
 (declare-fun c_main_~y~0 () Int)
(declare-fun c_main_~x~0 () Int)
(assert
 (let (($x216 (exists ((|v_main_#t~nondet1_6_st| IntState) (val!12 Int) )(exists ((|v_main_#t~nondet1_7_st| IntState) (val!13 Int) )(exists ((|v_main_#t~nondet1_5_st| IntState) (val!14 Int) )(let ((?x45 (+ (* 2 (val2 |v_main_#t~nondet1_6_st|)) (* 2 (val2 |v_main_#t~nondet1_7_st|)) (* 2 (val2 |v_main_#t~nondet1_5_st|)) 1)))
 (let (($x112 (not (= |v_main_#t~nondet1_5_st| (Mk1 val!14)))))
 (let (($x98 (not (= |v_main_#t~nondet1_7_st| (Mk1 val!13)))))
 (let (($x54 (not (= |v_main_#t~nondet1_6_st| (Mk1 val!12)))))
 (and $x54 $x98 $x112 (= c_main_~y~0 ?x45)))))))
 )
 )
 ))
 (let (($x200 (exists ((|v_main_#t~nondet0_7_st| IntState) (val!9 Int) )(exists ((|v_main_#t~nondet0_5_st| IntState) (val!10 Int) )(exists ((|v_main_#t~nondet0_6_st| IntState) (val!11 Int) )(let ((?x45 (+ (* 2 (val2 |v_main_#t~nondet0_7_st|)) (* 2 (val2 |v_main_#t~nondet0_5_st|)) (* 2 (val2 |v_main_#t~nondet0_6_st|)) 1)))
 (let (($x112 (not (= |v_main_#t~nondet0_6_st| (Mk1 val!11)))))
 (let (($x98 (not (= |v_main_#t~nondet0_5_st| (Mk1 val!10)))))
 (let (($x54 (not (= |v_main_#t~nondet0_7_st| (Mk1 val!9)))))
 (and $x54 $x98 $x112 (= ?x45 c_main_~x~0)))))))
 )
 )
 ))
 (let (($x38 (exists ((|v_main_#t~nondet0_5| Int) )(let ((?x167 (* 2 |v_main_#t~nondet0_5|)))
 (let ((?x169 (+ ?x167 1)))
 (= ?x169 c_main_~x~0))))
 ))
 (let (($x37 (exists ((|v_main_#t~nondet1_5| Int) )(let ((?x167 (* 2 |v_main_#t~nondet1_5|)))
 (let ((?x169 (+ ?x167 1)))
 (= ?x169 c_main_~y~0))))
 ))
 (and (and $x37 $x38) (not (and $x200 $x216))))))))
(check-sat)
